\ This file has been generated by DOcplex
\ ENCODING=ISO-8859-1
\Problem name: VCIT _ VCIT (bench)

Minimize
 obj: [ 72 fund_enriched.pmv_tgt_Investment_Grade_Credit_Capital_Goods^2
      + 72 fund_enriched.pmv_tgt_Investment_Grade_Credit_Insurance^2
      + 72 fund_enriched.pmv_tgt_Investment_Grade_Credit_Transportation^2 ]/2
Subject To
 dexpr_iTrade_UB_020002BJ9: 8.333333333333 x_020002BJ9
                            - 250.000000000000 iTrade_020002BJ9 <= 0
 dexpr_iTrade_LB_020002BJ9: 200 x_020002BJ9 - 1000 iTrade_020002BJ9 >= 0
 dexpr_iTrade_UB_026874DS3: 8.333333333333 x_026874DS3
                            - 250.000000000000 iTrade_026874DS3 <= 0
 dexpr_iTrade_LB_026874DS3: 200 x_026874DS3 - 1000 iTrade_026874DS3 >= 0
 dexpr_iTrade_UB_081437AT2: 8.333333333333 x_081437AT2
                            - 250.000000000000 iTrade_081437AT2 <= 0
 dexpr_iTrade_LB_081437AT2: 200 x_081437AT2 - 1000 iTrade_081437AT2 >= 0
 dexpr_iTrade_UB_097023CJ2: 8.333333333333 x_097023CJ2
                            - 108.333333333333 iTrade_097023CJ2 <= 0
 dexpr_iTrade_LB_097023CJ2: 200 x_097023CJ2 - 1000 iTrade_097023CJ2 >= 0
 dexpr_iTrade_UB_13645RAD6: 8.333333333333 x_13645RAD6
                            - 500.000000000000 iTrade_13645RAD6 <= 0
 dexpr_iTrade_LB_13645RAD6: 200 x_13645RAD6 - 1000 iTrade_13645RAD6 >= 0
 dexpr_iTrade_UB_13645RBF0: 8.333333333333 x_13645RBF0
                            - 341.666666666667 iTrade_13645RBF0 <= 0
 dexpr_iTrade_LB_13645RBF0: 200 x_13645RBF0 - 1000 iTrade_13645RBF0 >= 0
 dexpr_iTrade_UB_14448CBC7: 8.333333333333 x_14448CBC7
                            - 250.000000000000 iTrade_14448CBC7 <= 0
 dexpr_iTrade_LB_14448CBC7: 200 x_14448CBC7 - 1000 iTrade_14448CBC7 >= 0
 dexpr_iTrade_UB_15135BAW1: 8.333333333333 x_15135BAW1
                            - 250.000000000000 iTrade_15135BAW1 <= 0
 dexpr_iTrade_LB_15135BAW1: 200 x_15135BAW1 - 1000 iTrade_15135BAW1 >= 0
 dexpr_iTrade_UB_21871XAS8: 8.333333333333 x_21871XAS8
                            - 250.000000000000 iTrade_21871XAS8 <= 0
 dexpr_iTrade_LB_21871XAS8: 200 x_21871XAS8 - 1000 iTrade_21871XAS8 >= 0
 dexpr_iTrade_UB_24422EWZ8: 8.333333333333 x_24422EWZ8
                            - 141.666666666667 iTrade_24422EWZ8 <= 0
 dexpr_iTrade_LB_24422EWZ8: 200 x_24422EWZ8 - 1000 iTrade_24422EWZ8 >= 0
 dexpr_iTrade_UB_24422EXP9: 8.333333333333 x_24422EXP9
                            - 250.000000000000 iTrade_24422EXP9 <= 0
 dexpr_iTrade_LB_24422EXP9: 200 x_24422EXP9 - 1000 iTrade_24422EXP9 >= 0
 dexpr_iTrade_UB_314353AA1: 8.333333333333 x_314353AA1
                            - 500.000000000000 iTrade_314353AA1 <= 0
 dexpr_iTrade_LB_314353AA1: 200 x_314353AA1 - 1000 iTrade_314353AA1 >= 0
 dexpr_iTrade_UB_36166NAK9: 8.333333333333 x_36166NAK9
                            - 250.000000000000 iTrade_36166NAK9 <= 0
 dexpr_iTrade_LB_36166NAK9: 200 x_36166NAK9 - 1000 iTrade_36166NAK9 >= 0
 dexpr_iTrade_UB_438516CM6: 8.333333333333 x_438516CM6
                            - 250.000000000000 iTrade_438516CM6 <= 0
 dexpr_iTrade_LB_438516CM6: 200 x_438516CM6 - 1000 iTrade_438516CM6 >= 0
 dexpr_iTrade_UB_443201AC2: 8.333333333333 x_443201AC2
                            - 125.000000000000 iTrade_443201AC2 <= 0
 dexpr_iTrade_LB_443201AC2: 200 x_443201AC2 - 1000 iTrade_443201AC2 >= 0
 dexpr_iTrade_UB_444859BR2: 8.333333333333 x_444859BR2 - 150 iTrade_444859BR2
                             <= 0
 dexpr_iTrade_LB_444859BR2: 200 x_444859BR2 - 1000 iTrade_444859BR2 >= 0
 dexpr_iTrade_UB_444859BV3: 8.333333333333 x_444859BV3
                            - 250.000000000000 iTrade_444859BV3 <= 0
 dexpr_iTrade_LB_444859BV3: 200 x_444859BV3 - 1000 iTrade_444859BV3 >= 0
 dexpr_iTrade_UB_444859BY7: 8.333333333333 x_444859BY7
                            - 250.000000000000 iTrade_444859BY7 <= 0
 dexpr_iTrade_LB_444859BY7: 200 x_444859BY7 - 1000 iTrade_444859BY7 >= 0
 dexpr_iTrade_UB_444859CA8: 8.333333333333 x_444859CA8
                            - 250.000000000000 iTrade_444859CA8 <= 0
 dexpr_iTrade_LB_444859CA8: 200 x_444859CA8 - 1000 iTrade_444859CA8 >= 0
 dexpr_iTrade_UB_45687VAB2: 8.333333333333 x_45687VAB2 - 75 iTrade_45687VAB2
                             <= 0
 dexpr_iTrade_LB_45687VAB2: 200 x_45687VAB2 - 1000 iTrade_45687VAB2 >= 0
 dexpr_iTrade_UB_539830CD9: 8.333333333333 x_539830CD9
                            - 250.000000000000 iTrade_539830CD9 <= 0
 dexpr_iTrade_LB_539830CD9: 200 x_539830CD9 - 1000 iTrade_539830CD9 >= 0
 dexpr_iTrade_UB_540424AT5: 8.333333333333 x_540424AT5
                            - 250.000000000000 iTrade_540424AT5 <= 0
 dexpr_iTrade_LB_540424AT5: 200 x_540424AT5 - 1000 iTrade_540424AT5 >= 0
 dexpr_iTrade_UB_56501RAN6: 8.333333333333 x_56501RAN6
                            - 250.000000000000 iTrade_56501RAN6 <= 0
 dexpr_iTrade_LB_56501RAN6: 200 x_56501RAN6 - 1000 iTrade_56501RAN6 >= 0
 dexpr_iTrade_UB_655844CR7: 8.333333333333 x_655844CR7
                            - 1000.000000000000 iTrade_655844CR7 <= 0
 dexpr_iTrade_LB_655844CR7: 200 x_655844CR7 - 1000 iTrade_655844CR7 >= 0
 dexpr_iTrade_UB_655844CT3: 8.333333333333 x_655844CT3 - 100 iTrade_655844CT3
                             <= 0
 dexpr_iTrade_LB_655844CT3: 200 x_655844CT3 - 1000 iTrade_655844CT3 >= 0
 dexpr_iTrade_UB_75513EAD3: 8.333333333333 x_75513EAD3
                            - 225.000000000000 iTrade_75513EAD3 <= 0
 dexpr_iTrade_LB_75513EAD3: 200 x_75513EAD3 - 1000 iTrade_75513EAD3 >= 0
 dexpr_iTrade_UB_759351AP4: 8.333333333333 x_759351AP4
                            - 250.000000000000 iTrade_759351AP4 <= 0
 dexpr_iTrade_LB_759351AP4: 200 x_759351AP4 - 1000 iTrade_759351AP4 >= 0
 dexpr_iTrade_UB_760759BA7: 8.333333333333 x_760759BA7
                            - 250.000000000000 iTrade_760759BA7 <= 0
 dexpr_iTrade_LB_760759BA7: 200 x_760759BA7 - 1000 iTrade_760759BA7 >= 0
 dexpr_iTrade_UB_760759BC3: 8.333333333333 x_760759BC3
                            - 250.000000000000 iTrade_760759BC3 <= 0
 dexpr_iTrade_LB_760759BC3: 200 x_760759BC3 - 1000 iTrade_760759BC3 >= 0
 dexpr_iTrade_UB_907818FX1: 8.333333333333 x_907818FX1
                            - 500.000000000000 iTrade_907818FX1 <= 0
 dexpr_iTrade_LB_907818FX1: 200 x_907818FX1 - 1000 iTrade_907818FX1 >= 0
 dexpr_iTrade_UB_91324PEJ7: 8.333333333333 x_91324PEJ7 - 175 iTrade_91324PEJ7
                             <= 0
 dexpr_iTrade_LB_91324PEJ7: 200 x_91324PEJ7 - 1000 iTrade_91324PEJ7 >= 0
 trade_num_upper_limit: iTrade_020002BJ9 + iTrade_026874DS3 + iTrade_081437AT2
                        + iTrade_097023CJ2 + iTrade_13645RAD6 + iTrade_13645RBF0
                        + iTrade_14448CBC7 + iTrade_15135BAW1 + iTrade_21871XAS8
                        + iTrade_24422EWZ8 + iTrade_24422EXP9 + iTrade_314353AA1
                        + iTrade_36166NAK9 + iTrade_438516CM6 + iTrade_443201AC2
                        + iTrade_444859BR2 + iTrade_444859BV3 + iTrade_444859BY7
                        + iTrade_444859CA8 + iTrade_45687VAB2 + iTrade_539830CD9
                        + iTrade_540424AT5 + iTrade_56501RAN6 + iTrade_655844CR7
                        + iTrade_655844CT3 + iTrade_75513EAD3 + iTrade_759351AP4
                        + iTrade_760759BA7 + iTrade_760759BC3 + iTrade_907818FX1
                        + iTrade_91324PEJ7 <= 500

                                                                                                             limit_sodraw.filterLevel1_sodraw.filterLevel3_Investment_Grade_Credit_Capital_Goods_fund_enriched.pmv_min:
                                                                                                            0.028510851146 x_081437AT2
                                                                                                            + 0.027298851045 x_097023CJ2
                                                                                                            + 0.033939846355 x_14448CBC7
                                                                                                            + 0.032714779285 x_24422EWZ8
                                                                                                            + 0.032622048628 x_24422EXP9
                                                                                                            + 0.031825968182 x_36166NAK9
                                                                                                            + 0.031667951458 x_438516CM6
                                                                                                            + 0.031871754859 x_443201AC2
                                                                                                            + 0.033698227268 x_45687VAB2
                                                                                                            + 0.032078431567 x_539830CD9
                                                                                                            + 0.028236246188 x_75513EAD3
                                                                                                            + 0.026425255721 x_760759BA7
                                                                                                            + 0.032050068416 x_760759BC3
                                                                                                             >= 
                                                                                                            4.758736462913

                                                                                                             limit_sodraw.filterLevel1_sodraw.filterLevel3_Investment_Grade_Credit_Capital_Goods_fund_enriched.pmv_max:
                                                                                                            0.028510851146 x_081437AT2
                                                                                                            + 0.027298851045 x_097023CJ2
                                                                                                            + 0.033939846355 x_14448CBC7
                                                                                                            + 0.032714779285 x_24422EWZ8
                                                                                                            + 0.032622048628 x_24422EXP9
                                                                                                            + 0.031825968182 x_36166NAK9
                                                                                                            + 0.031667951458 x_438516CM6
                                                                                                            + 0.031871754859 x_443201AC2
                                                                                                            + 0.033698227268 x_45687VAB2
                                                                                                            + 0.032078431567 x_539830CD9
                                                                                                            + 0.028236246188 x_75513EAD3
                                                                                                            + 0.026425255721 x_760759BA7
                                                                                                            + 0.032050068416 x_760759BC3
                                                                                                             <= 
                                                                                                            6.847872350911
 fund_enriched.pmv_Investment_Grade_Credit_Capital_Goods_tgt:
                                                              fund_enriched.pmv_tgt_Investment_Grade_Credit_Capital_Goods
                                                              - 0.028510851146 x_081437AT2
                                                              - 0.027298851045 x_097023CJ2
                                                              - 0.033939846355 x_14448CBC7
                                                              - 0.032714779285 x_24422EWZ8
                                                              - 0.032622048628 x_24422EXP9
                                                              - 0.031825968182 x_36166NAK9
                                                              - 0.031667951458 x_438516CM6
                                                              - 0.031871754859 x_443201AC2
                                                              - 0.033698227268 x_45687VAB2
                                                              - 0.032078431567 x_539830CD9
                                                              - 0.028236246188 x_75513EAD3
                                                              - 0.026425255721 x_760759BA7
                                                              - 0.032050068416 x_760759BC3
                                                               = 
                                                              -5.803304406912

                                                                                                                limit_sodraw.filterLevel1_sodraw.filterLevel3_Investment_Grade_Credit_Capital_Goods_fund_enriched.dxsCtr_min:
                                                                                                               13.316192340035 x_081437AT2
                                                                                                               + 34.461503917596 x_097023CJ2
                                                                                                               + 22.473301347308 x_14448CBC7
                                                                                                               + 7.419054757700 x_24422EWZ8
                                                                                                               + 16.111012630144 x_24422EXP9
                                                                                                               + 14.941828851305 x_36166NAK9
                                                                                                               + 13.522903255546 x_438516CM6
                                                                                                               + 14.154534858858 x_443201AC2
                                                                                                               + 20.092890519524 x_45687VAB2
                                                                                                               + 15.855019693051 x_539830CD9
                                                                                                               + 9.403495008104 x_75513EAD3
                                                                                                               + 15.388018208694 x_760759BA7
                                                                                                               + 18.718284601554 x_760759BC3
                                                                                                                >= 
                                                                                                               1780.689260450720

                                                                                                                limit_sodraw.filterLevel1_sodraw.filterLevel3_Investment_Grade_Credit_Capital_Goods_fund_enriched.dxsCtr_max:
                                                                                                               13.316192340035 x_081437AT2
                                                                                                               + 34.461503917596 x_097023CJ2
                                                                                                               + 22.473301347308 x_14448CBC7
                                                                                                               + 7.419054757700 x_24422EWZ8
                                                                                                               + 16.111012630144 x_24422EXP9
                                                                                                               + 14.941828851305 x_36166NAK9
                                                                                                               + 13.522903255546 x_438516CM6
                                                                                                               + 14.154534858858 x_443201AC2
                                                                                                               + 20.092890519524 x_45687VAB2
                                                                                                               + 15.855019693051 x_539830CD9
                                                                                                               + 9.403495008104 x_75513EAD3
                                                                                                               + 15.388018208694 x_760759BA7
                                                                                                               + 18.718284601554 x_760759BC3
                                                                                                                <= 
                                                                                                               3869.825148448374

                                                                                                         limit_sodraw.filterLevel1_sodraw.filterLevel3_Investment_Grade_Credit_Insurance_fund_enriched.pmv_min:
                                                                                                        0.026334188570 x_020002BJ9
                                                                                                        + 0.032168634542 x_026874DS3
                                                                                                        + 0.027845453268 x_15135BAW1
                                                                                                        + 0.033333333333 x_21871XAS8
                                                                                                        + 0.026085891521 x_444859BR2
                                                                                                        + 0.033043461247 x_444859BV3
                                                                                                        + 0.033169141002 x_444859BY7
                                                                                                        + 0.032189269112 x_444859CA8
                                                                                                        + 0.029904973177 x_540424AT5
                                                                                                        + 0.029814829851 x_56501RAN6
                                                                                                        + 0.029540913811 x_759351AP4
                                                                                                        + 0.031401384436 x_91324PEJ7
                                                                                                         >= 
                                                                                                        4.134392251914

                                                                                                         limit_sodraw.filterLevel1_sodraw.filterLevel3_Investment_Grade_Credit_Insurance_fund_enriched.pmv_max:
                                                                                                        0.026334188570 x_020002BJ9
                                                                                                        + 0.032168634542 x_026874DS3
                                                                                                        + 0.027845453268 x_15135BAW1
                                                                                                        + 0.033333333333 x_21871XAS8
                                                                                                        + 0.026085891521 x_444859BR2
                                                                                                        + 0.033043461247 x_444859BV3
                                                                                                        + 0.033169141002 x_444859BY7
                                                                                                        + 0.032189269112 x_444859CA8
                                                                                                        + 0.029904973177 x_540424AT5
                                                                                                        + 0.029814829851 x_56501RAN6
                                                                                                        + 0.029540913811 x_759351AP4
                                                                                                        + 0.031401384436 x_91324PEJ7
                                                                                                         <= 
                                                                                                        6.223528139912
 fund_enriched.pmv_Investment_Grade_Credit_Insurance_tgt:
                                                          fund_enriched.pmv_tgt_Investment_Grade_Credit_Insurance
                                                          - 0.026334188570 x_020002BJ9
                                                          - 0.032168634542 x_026874DS3
                                                          - 0.027845453268 x_15135BAW1
                                                          - 0.033333333333 x_21871XAS8
                                                          - 0.026085891521 x_444859BR2
                                                          - 0.033043461247 x_444859BV3
                                                          - 0.033169141002 x_444859BY7
                                                          - 0.032189269112 x_444859CA8
                                                          - 0.029904973177 x_540424AT5
                                                          - 0.029814829851 x_56501RAN6
                                                          - 0.029540913811 x_759351AP4
                                                          - 0.031401384436 x_91324PEJ7
                                                           = -5.178960195913

                                                                                                            limit_sodraw.filterLevel1_sodraw.filterLevel3_Investment_Grade_Credit_Insurance_fund_enriched.dxsCtr_min:
                                                                                                           11.747405182296 x_020002BJ9
                                                                                                           + 19.306390960602 x_026874DS3
                                                                                                           + 21.626486622322 x_15135BAW1
                                                                                                           + 26.975300311131 x_21871XAS8
                                                                                                           + 19.713755048306 x_444859BR2
                                                                                                           + 27.751655496693 x_444859BV3
                                                                                                           + 30.609690034080 x_444859BY7
                                                                                                           + 19.355617330400 x_444859CA8
                                                                                                           + 10.363425862747 x_540424AT5
                                                                                                           + 13.086051978345 x_56501RAN6
                                                                                                           + 11.974870385817 x_759351AP4
                                                                                                           + 11.756014097259 x_91324PEJ7
                                                                                                            >= 
                                                                                                           1991.429728208550

                                                                                                            limit_sodraw.filterLevel1_sodraw.filterLevel3_Investment_Grade_Credit_Insurance_fund_enriched.dxsCtr_max:
                                                                                                           11.747405182296 x_020002BJ9
                                                                                                           + 19.306390960602 x_026874DS3
                                                                                                           + 21.626486622322 x_15135BAW1
                                                                                                           + 26.975300311131 x_21871XAS8
                                                                                                           + 19.713755048306 x_444859BR2
                                                                                                           + 27.751655496693 x_444859BV3
                                                                                                           + 30.609690034080 x_444859BY7
                                                                                                           + 19.355617330400 x_444859CA8
                                                                                                           + 10.363425862747 x_540424AT5
                                                                                                           + 13.086051978345 x_56501RAN6
                                                                                                           + 11.974870385817 x_759351AP4
                                                                                                           + 11.756014097259 x_91324PEJ7
                                                                                                            <= 
                                                                                                           4080.565616206205

                                                                                                              limit_sodraw.filterLevel1_sodraw.filterLevel3_Investment_Grade_Credit_Transportation_fund_enriched.pmv_min:
                                                                                                             0.036219399300 x_13645RAD6
                                                                                                             + 0.027884438059 x_13645RBF0
                                                                                                             + 0.021396294681 x_314353AA1
                                                                                                             + 0.032900018194 x_655844CR7
                                                                                                             + 0.033512025872 x_655844CT3
                                                                                                             + 0.028460612621 x_907818FX1
                                                                                                              >= 
                                                                                                             0.240014083139

                                                                                                              limit_sodraw.filterLevel1_sodraw.filterLevel3_Investment_Grade_Credit_Transportation_fund_enriched.pmv_max:
                                                                                                             0.036219399300 x_13645RAD6
                                                                                                             + 0.027884438059 x_13645RBF0
                                                                                                             + 0.021396294681 x_314353AA1
                                                                                                             + 0.032900018194 x_655844CR7
                                                                                                             + 0.033512025872 x_655844CT3
                                                                                                             + 0.028460612621 x_907818FX1
                                                                                                              <= 
                                                                                                             2.329149971137
 fund_enriched.pmv_Investment_Grade_Credit_Transportation_tgt:
                                                               fund_enriched.pmv_tgt_Investment_Grade_Credit_Transportation
                                                               - 0.036219399300 x_13645RAD6
                                                               - 0.027884438059 x_13645RBF0
                                                               - 0.021396294681 x_314353AA1
                                                               - 0.032900018194 x_655844CR7
                                                               - 0.033512025872 x_655844CT3
                                                               - 0.028460612621 x_907818FX1
                                                                = 
                                                               -1.284582027138

                                                                                                                 limit_sodraw.filterLevel1_sodraw.filterLevel3_Investment_Grade_Credit_Transportation_fund_enriched.dxsCtr_min:
                                                                                                                15.089482208275 x_13645RAD6
                                                                                                                + 10.539685605941 x_13645RBF0
                                                                                                                + 6.717104534094 x_314353AA1
                                                                                                                + 8.873446805108 x_655844CR7
                                                                                                                + 18.410355591122 x_655844CT3
                                                                                                                + 9.511491865065 x_907818FX1
                                                                                                                 >= 
                                                                                                                -479.881210498972

                                                                                                                 limit_sodraw.filterLevel1_sodraw.filterLevel3_Investment_Grade_Credit_Transportation_fund_enriched.dxsCtr_max:
                                                                                                                15.089482208275 x_13645RAD6
                                                                                                                + 10.539685605941 x_13645RBF0
                                                                                                                + 6.717104534094 x_314353AA1
                                                                                                                + 8.873446805108 x_655844CR7
                                                                                                                + 18.410355591122 x_655844CT3
                                                                                                                + 9.511491865065 x_907818FX1
                                                                                                                 <= 
                                                                                                                1609.254677498683
 low_cnstr_cash: 0.026334188570 x_020002BJ9 + 0.032168634542 x_026874DS3
                 + 0.028510851146 x_081437AT2 + 0.027298851045 x_097023CJ2
                 + 0.036219399300 x_13645RAD6 + 0.027884438059 x_13645RBF0
                 + 0.033939846355 x_14448CBC7 + 0.027845453268 x_15135BAW1
                 + 0.033333333333 x_21871XAS8 + 0.032714779285 x_24422EWZ8
                 + 0.032622048628 x_24422EXP9 + 0.021396294681 x_314353AA1
                 + 0.031825968182 x_36166NAK9 + 0.031667951458 x_438516CM6
                 + 0.031871754859 x_443201AC2 + 0.026085891521 x_444859BR2
                 + 0.033043461247 x_444859BV3 + 0.033169141002 x_444859BY7
                 + 0.032189269112 x_444859CA8 + 0.033698227268 x_45687VAB2
                 + 0.032078431567 x_539830CD9 + 0.029904973177 x_540424AT5
                 + 0.029814829851 x_56501RAN6 + 0.032900018194 x_655844CR7
                 + 0.033512025872 x_655844CT3 + 0.028236246188 x_75513EAD3
                 + 0.029540913811 x_759351AP4 + 0.026425255721 x_760759BA7
                 + 0.032050068416 x_760759BC3 + 0.028460612621 x_907818FX1
                 + 0.031401384436 x_91324PEJ7 >= 2.600974180557
 cnstr_cash: 0.026334188570 x_020002BJ9 + 0.032168634542 x_026874DS3
             + 0.028510851146 x_081437AT2 + 0.027298851045 x_097023CJ2
             + 0.036219399300 x_13645RAD6 + 0.027884438059 x_13645RBF0
             + 0.033939846355 x_14448CBC7 + 0.027845453268 x_15135BAW1
             + 0.033333333333 x_21871XAS8 + 0.032714779285 x_24422EWZ8
             + 0.032622048628 x_24422EXP9 + 0.021396294681 x_314353AA1
             + 0.031825968182 x_36166NAK9 + 0.031667951458 x_438516CM6
             + 0.031871754859 x_443201AC2 + 0.026085891521 x_444859BR2
             + 0.033043461247 x_444859BV3 + 0.033169141002 x_444859BY7
             + 0.032189269112 x_444859CA8 + 0.033698227268 x_45687VAB2
             + 0.032078431567 x_539830CD9 + 0.029904973177 x_540424AT5
             + 0.029814829851 x_56501RAN6 + 0.032900018194 x_655844CR7
             + 0.033512025872 x_655844CT3 + 0.028236246188 x_75513EAD3
             + 0.029540913811 x_759351AP4 + 0.026425255721 x_760759BA7
             + 0.032050068416 x_760759BC3 + 0.028460612621 x_907818FX1
             + 0.031401384436 x_91324PEJ7 <= 10.435233760548

Bounds
 0 <= iTrade_020002BJ9 <= 1
 0 <= iTrade_026874DS3 <= 1
 0 <= iTrade_081437AT2 <= 1
 0 <= iTrade_097023CJ2 <= 1
 0 <= iTrade_13645RAD6 <= 1
 0 <= iTrade_13645RBF0 <= 1
 0 <= iTrade_14448CBC7 <= 1
 0 <= iTrade_15135BAW1 <= 1
 0 <= iTrade_21871XAS8 <= 1
 0 <= iTrade_24422EWZ8 <= 1
 0 <= iTrade_24422EXP9 <= 1
 0 <= iTrade_314353AA1 <= 1
 0 <= iTrade_36166NAK9 <= 1
 0 <= iTrade_438516CM6 <= 1
 0 <= iTrade_443201AC2 <= 1
 0 <= iTrade_444859BR2 <= 1
 0 <= iTrade_444859BV3 <= 1
 0 <= iTrade_444859BY7 <= 1
 0 <= iTrade_444859CA8 <= 1
 0 <= iTrade_45687VAB2 <= 1
 0 <= iTrade_539830CD9 <= 1
 0 <= iTrade_540424AT5 <= 1
 0 <= iTrade_56501RAN6 <= 1
 0 <= iTrade_655844CR7 <= 1
 0 <= iTrade_655844CT3 <= 1
 0 <= iTrade_75513EAD3 <= 1
 0 <= iTrade_759351AP4 <= 1
 0 <= iTrade_760759BA7 <= 1
 0 <= iTrade_760759BC3 <= 1
 0 <= iTrade_907818FX1 <= 1
 0 <= iTrade_91324PEJ7 <= 1
 5 <= x_020002BJ9 <= 30
 5 <= x_026874DS3 <= 30
 5 <= x_081437AT2 <= 30
 5 <= x_097023CJ2 <= 13
 5 <= x_13645RAD6 <= 60
 5 <= x_13645RBF0 <= 41
 5 <= x_14448CBC7 <= 30
 5 <= x_15135BAW1 <= 30
 5 <= x_21871XAS8 <= 30
 5 <= x_24422EWZ8 <= 17
 5 <= x_24422EXP9 <= 30
 5 <= x_314353AA1 <= 60
 5 <= x_36166NAK9 <= 30
 5 <= x_438516CM6 <= 30
 5 <= x_443201AC2 <= 15
 5 <= x_444859BR2 <= 18
 5 <= x_444859BV3 <= 30
 5 <= x_444859BY7 <= 30
 5 <= x_444859CA8 <= 30
 5 <= x_45687VAB2 <= 9
 5 <= x_539830CD9 <= 30
 5 <= x_540424AT5 <= 30
 5 <= x_56501RAN6 <= 30
 5 <= x_655844CR7 <= 120
 5 <= x_655844CT3 <= 12
 5 <= x_75513EAD3 <= 27
 5 <= x_759351AP4 <= 30
 5 <= x_760759BA7 <= 30
 5 <= x_760759BC3 <= 30
 5 <= x_907818FX1 <= 60
 5 <= x_91324PEJ7 <= 21
       fund_enriched.pmv_tgt_Investment_Grade_Credit_Capital_Goods Free
       fund_enriched.pmv_tgt_Investment_Grade_Credit_Insurance Free
       fund_enriched.pmv_tgt_Investment_Grade_Credit_Transportation Free

Binaries
 iTrade_020002BJ9 iTrade_026874DS3 iTrade_081437AT2 iTrade_097023CJ2
 iTrade_13645RAD6 iTrade_13645RBF0 iTrade_14448CBC7 iTrade_15135BAW1
 iTrade_21871XAS8 iTrade_24422EWZ8 iTrade_24422EXP9 iTrade_314353AA1
 iTrade_36166NAK9 iTrade_438516CM6 iTrade_443201AC2 iTrade_444859BR2
 iTrade_444859BV3 iTrade_444859BY7 iTrade_444859CA8 iTrade_45687VAB2
 iTrade_539830CD9 iTrade_540424AT5 iTrade_56501RAN6 iTrade_655844CR7
 iTrade_655844CT3 iTrade_75513EAD3 iTrade_759351AP4 iTrade_760759BA7
 iTrade_760759BC3 iTrade_907818FX1 iTrade_91324PEJ7

Generals
 x_020002BJ9 x_026874DS3 x_081437AT2 x_097023CJ2 x_13645RAD6 x_13645RBF0
 x_14448CBC7 x_15135BAW1 x_21871XAS8 x_24422EWZ8 x_24422EXP9 x_314353AA1
 x_36166NAK9 x_438516CM6 x_443201AC2 x_444859BR2 x_444859BV3 x_444859BY7
 x_444859CA8 x_45687VAB2 x_539830CD9 x_540424AT5 x_56501RAN6 x_655844CR7
 x_655844CT3 x_75513EAD3 x_759351AP4 x_760759BA7 x_760759BC3 x_907818FX1
 x_91324PEJ7

Semi-continuous
 x_020002BJ9 x_026874DS3 x_081437AT2 x_097023CJ2 x_13645RAD6 x_13645RBF0
 x_14448CBC7 x_15135BAW1 x_21871XAS8 x_24422EWZ8 x_24422EXP9 x_314353AA1
 x_36166NAK9 x_438516CM6 x_443201AC2 x_444859BR2 x_444859BV3 x_444859BY7
 x_444859CA8 x_45687VAB2 x_539830CD9 x_540424AT5 x_56501RAN6 x_655844CR7
 x_655844CT3 x_75513EAD3 x_759351AP4 x_760759BA7 x_760759BC3 x_907818FX1
 x_91324PEJ7
End
